p cnf 14 64
-5 -8 -14 0
-8 -9 11 0
4 -11 -13 0
-2 3 10 0
-2 10 14 0
1 4 9 0
-3 4 -14 0
-3 -9 -13 0
-2 -3 -10 0
-1 -4 14 0
8 -10 12 0
-5 -11 14 0
-5 8 11 0
-4 -5 -6 0
-1 -3 9 0
1 -12 -14 0
-6 10 -12 0
-7 -10 -14 0
1 8 13 0
2 4 -12 0
4 -9 -14 0
-4 7 13 0
3 -4 14 0
2 4 5 0
4 -13 -14 0
7 -10 14 0
-4 -5 14 0
4 7 13 0
-3 -5 -14 0
4 -8 11 0
2 -10 14 0
4 10 12 0
-5 -8 13 0
-2 -3 -14 0
-7 8 9 0
3 7 -9 0
8 9 12 0
-3 9 -12 0
-5 6 12 0
8 -11 -14 0
2 7 11 0
1 5 7 0
-1 -3 8 0
-1 2 14 0
5 -7 -11 0
-1 9 -13 0
-7 8 10 0
-6 8 -9 0
3 6 12 0
-1 -2 -6 0
-8 9 11 0
4 -6 8 0
1 -5 -8 0
9 10 11 0
-1 5 8 0
-4 6 9 0
3 -5 -6 0
4 -7 9 0
-6 -10 -12 0
-3 -9 -11 0
11 -12 13 0
-1 6 14 0
9 -10 11 0
-4 -7 13 0
